33 -6 -8 -9 0 23 27 31 13 3 32 0
34 -8 -9 0 23 33 5 30 32 1 9 19 0
34 d 23 0
35 7 -9 0 34 6 31 10 20 32 13 0
36 -6 -9 0 34 35 28 14 31 25 3 0
36 d 33 0
37 -9 0 34 35 28 14 36 11 29 18 8 0
38 5 6 0 37 16 12 4 29 0
39 -5 -3 0 26 24 19 13 0
39 d 26 0
40 6 0 37 15 38 39 0
41 -5 0 40 37 20 39 21 2 7 30 0
42 1 0 41 37 16 0
43 7 0 41 37 12 0
44 -4 0 42 43 29 0
45 -8 0 43 40 22 0
46 3 0 44 41 3 0
47 2 0 45 41 14 0
48 0 47 46 42 17 0
